39796.90 0
90 87 85 86 82 57 58 83 56 55 54 53 52 51 84 50 49 48 47 46 45 44 43 42 39 40 41 557 35 34 33 38 37 36 32 30 31 22 23 12 13 14 15 16 18 17 11 10 9 8 7 6 5 4 3 2 1 0 573 572 571 468 467 466 464 465 497 496 470 469 570 569 568 19 20 21 24 25 26 27 28 29 567 566 565 563 561 560 562 564 549 548 478 477 479 480 476 475 481 482 483 493 492 525 524 494 473 474 472 471 495 518 519 520 521 523 522 517 504 503 502 498 501 500 499 453 452 461 462 463 460 459 458 457 456 455 454 438 437 433 434 435 436 439 443 444 445 442 446 447 448 449 440 441 450 451 378 380 379 376 377 314 315 375 374 373 372 371 395 396 394 393 391 392 381 390 389 388 387 386 385 408 409 384 383 382 431 432 430 429 428 427 426 425 424 423 422 421 420 419 418 410 411 412 417 413 416 415 414 351 352 353 354 355 357 356 401 402 403 400 404 405 406 407 397 398 399 361 360 359 358 349 350 348 347 362 363 364 346 345 344 343 342 366 365 367 368 369 370 327 326 323 322 324 325 328 329 330 331 332 340 341 339 338 337 336 333 335 334 283 284 285 286 287 282 281 280 279 278 277 276 288 289 290 275 274 273 292 291 293 294 295 296 270 269 272 271 268 267 297 298 266 265 264 263 262 299 258 259 261 260 257 256 255 253 254 252 251 250 249 248 241 300 301 302 303 304 306 305 318 317 319 320 321 316 313 312 311 310 309 308 505 307 506 507 508 509 510 513 516 515 514 527 512 511 528 529 526 491 490 489 532 531 530 233 232 234 235 236 237 238 239 240 243 242 244 245 247 246 216 217 215 214 213 212 211 210 209 221 223 224 222 220 218 219 193 192 191 190 226 225 189 227 228 229 230 231 533 488 534 535 487 486 485 484 536 537 539 538 540 188 187 176 177 178 186 182 179 180 181 183 185 184 194 195 196 197 205 206 207 208 198 199 200 201 202 204 203 165 164 166 167 163 168 162 160 154 155 159 156 153 157 158 145 144 143 142 146 147 148 152 149 150 151 141 140 139 138 137 136 135 134 133 132 131 130 129 128 127 116 115 114 113 161 112 111 110 172 170 169 171 175 174 173 108 109 107 542 541 543 544 545 546 547 103 104 105 106 118 119 120 121 122 123 71 117 126 125 124 69 70 68 67 66 65 72 73 74 75 77 76 64 63 61 60 59 81 80 79 62 78 88 89 94 95 96 97 98 99 100 102 101 551 550 559 558 552 553 554 556 555 91 93 92